60
1 0 114
2 0 75
2 1 102
3 0 65
3 1 47
3 2 94
4 0 3
4 1 90
4 2 53
4 3 28
5 0 22
5 1 88
5 2 78
5 3 95
5 4 72
6 0 41
6 1 95
6 2 79
6 3 27
6 4 116
6 5 101
7 0 25
7 1 39
7 2 81
7 3 77
7 4 85
7 5 88
7 6 52
8 0 54
8 1 99
8 2 61
8 3 28
8 4 85
8 5 31
8 6 5
8 7 100
9 0 97
9 1 103
9 2 108
9 3 31
9 4 85
9 5 14
9 6 5
9 7 55
9 8 71
10 0 115
10 1 5
10 2 91
10 3 4
10 4 113
10 5 70
10 6 101
10 7 37
10 8 80
10 9 36
11 0 65
11 1 89
11 2 89
11 3 90
11 4 83
11 5 43
11 6 77
11 7 8
11 8 79
11 9 25
11 10 57
12 0 69
12 1 63
12 2 5
12 3 26
12 4 63
12 5 100
12 6 26
12 7 26
12 8 68
12 9 61
12 10 20
12 11 96
13 0 82
13 1 39
13 2 77
13 3 50
13 4 89
13 5 119
13 6 72
13 7 74
13 8 108
13 9 93
13 10 63
13 11 90
13 12 51
14 0 28
14 1 48
14 2 32
14 3 84
14 4 56
14 5 102
14 6 119
14 7 67
14 8 107
14 9 110
14 10 76
14 11 16
14 12 72
14 13 77
15 0 68
15 1 102
15 2 80
15 3 53
15 4 71
15 5 41
15 6 120
15 7 96
15 8 13
15 9 37
15 10 80
15 11 108
15 12 11
15 13 84
15 14 88
16 0 23
16 1 76
16 2 82
16 3 119
16 4 119
16 5 4
16 6 25
16 7 32
16 8 68
16 9 90
16 10 39
16 11 2
16 12 51
16 13 61
16 14 48
16 15 62
17 0 81
17 1 66
17 2 109
17 3 104
17 4 76
17 5 100
17 6 61
17 7 49
17 8 23
17 9 58
17 10 67
17 11 75
17 12 60
17 13 117
17 14 25
17 15 39
17 16 113
18 0 99
18 1 103
18 2 90
18 3 76
18 4 87
18 5 63
18 6 8
18 7 96
18 8 39
18 9 38
18 10 19
18 11 80
18 12 36
18 13 44
18 14 94
18 15 116
18 16 33
18 17 73
19 0 67
19 1 2
19 2 83
19 3 34
19 4 34
19 5 115
19 6 97
19 7 40
19 8 58
19 9 89
19 10 48
19 11 88
19 12 46
19 13 101
19 14 86
19 15 71
19 16 60
19 17 102
19 18 117
20 0 72
20 1 80
20 2 40
20 3 38
20 4 1
20 5 20
20 6 84
20 7 111
20 8 41
20 9 27
20 10 3
20 11 117
20 12 68
20 13 20
20 14 100
20 15 45
20 16 28
20 17 100
20 18 64
20 19 76
21 0 115
21 1 21
21 2 108
21 3 20
21 4 35
21 5 11
21 6 96
21 7 1
21 8 85
21 9 109
21 10 10
21 11 85
21 12 44
21 13 6
21 14 29
21 15 94
21 16 95
21 17 107
21 18 60
21 19 22
21 20 96
22 0 88
22 1 12
22 2 52
22 3 7
22 4 52
22 5 24
22 6 72
22 7 39
22 8 22
22 9 72
22 10 15
22 11 17
22 12 39
22 13 14
22 14 20
22 15 65
22 16 48
22 17 50
22 18 20
22 19 19
22 20 82
22 21 70
23 0 60
23 1 67
23 2 99
23 3 96
23 4 75
23 5 110
23 6 71
23 7 98
23 8 16
23 9 33
23 10 79
23 11 13
23 12 48
23 13 112
23 14 107
23 15 119
23 16 111
23 17 99
23 18 90
23 19 118
23 20 60
23 21 105
23 22 80
24 0 31
24 1 90
24 2 78
24 3 48
24 4 107
24 5 96
24 6 107
24 7 118
24 8 41
24 9 120
24 10 83
24 11 70
24 12 43
24 13 118
24 14 43
24 15 40
24 16 16
24 17 62
24 18 37
24 19 23
24 20 66
24 21 115
24 22 59
24 23 23
25 0 94
25 1 25
25 2 27
25 3 82
25 4 67
25 5 53
25 6 43
25 7 53
25 8 104
25 9 17
25 10 27
25 11 90
25 12 117
25 13 10
25 14 96
25 15 103
25 16 119
25 17 45
25 18 114
25 19 43
25 20 33
25 21 81
25 22 91
25 23 47
25 24 63
26 0 20
26 1 37
26 2 97
26 3 47
26 4 115
26 5 50
26 6 72
26 7 89
26 8 117
26 9 12
26 10 29
26 11 16
26 12 60
26 13 106
26 14 100
26 15 5
26 16 104
26 17 27
26 18 11
26 19 101
26 20 17
26 21 72
26 22 73
26 23 84
26 24 77
26 25 7
27 0 119
27 1 97
27 2 69
27 3 35
27 4 81
27 5 72
27 6 48
27 7 60
27 8 78
27 9 116
27 10 51
27 11 83
27 12 38
27 13 62
27 14 105
27 15 10
27 16 24
27 17 47
27 18 58
27 19 91
27 20 39
27 21 44
27 22 19
27 23 102
27 24 50
27 25 119
27 26 60
28 0 89
28 1 26
28 2 10
28 3 17
28 4 30
28 5 66
28 6 4
28 7 5
28 8 73
28 9 16
28 10 47
28 11 53
28 12 94
28 13 115
28 14 112
28 15 114
28 16 55
28 17 115
28 18 19
28 19 5
28 20 84
28 21 33
28 22 94
28 23 107
28 24 25
28 25 18
28 26 96
28 27 39
29 0 53
29 1 65
29 2 19
29 3 52
29 4 37
29 5 89
29 6 14
29 7 108
29 8 13
29 9 91
29 10 88
29 11 36
29 12 89
29 13 14
29 14 29
29 15 97
29 16 82
29 17 51
29 18 12
29 19 14
29 20 117
29 21 109
29 22 5
29 23 60
29 24 41
29 25 63
29 26 49
29 27 34
29 28 32
30 0 81
30 1 68
30 2 25
30 3 50
30 4 51
30 5 30
30 6 50
30 7 114
30 8 91
30 9 3
30 10 10
30 11 61
30 12 42
30 13 41
30 14 105
30 15 117
30 16 102
30 17 91
30 18 90
30 19 27
30 20 81
30 21 50
30 22 107
30 23 59
30 24 89
30 25 89
30 26 74
30 27 13
30 28 89
30 29 117
31 0 88
31 1 86
31 2 97
31 3 14
31 4 65
31 5 20
31 6 80
31 7 25
31 8 60
31 9 90
31 10 86
31 11 27
31 12 41
31 13 64
31 14 65
31 15 94
31 16 116
31 17 94
31 18 96
31 19 82
31 20 74
31 21 105
31 22 71
31 23 98
31 24 2
31 25 21
31 26 77
31 27 115
31 28 56
31 29 92
31 30 106
32 0 78
32 1 23
32 2 114
32 3 50
32 4 115
32 5 48
32 6 110
32 7 101
32 8 114
32 9 90
32 10 21
32 11 45
32 12 21
32 13 30
32 14 43
32 15 44
32 16 55
32 17 106
32 18 88
32 19 9
32 20 96
32 21 35
32 22 47
32 23 97
32 24 17
32 25 56
32 26 120
32 27 96
32 28 49
32 29 28
32 30 76
32 31 54
33 0 1
33 1 110
33 2 110
33 3 87
33 4 75
33 5 69
33 6 87
33 7 112
33 8 28
33 9 74
33 10 112
33 11 24
33 12 40
33 13 89
33 14 19
33 15 17
33 16 11
33 17 52
33 18 44
33 19 102
33 20 103
33 21 68
33 22 96
33 23 3
33 24 10
33 25 94
33 26 79
33 27 98
33 28 92
33 29 79
33 30 56
33 31 110
33 32 108
34 0 105
34 1 2
34 2 85
34 3 69
34 4 119
34 5 34
34 6 91
34 7 74
34 8 45
34 9 112
34 10 93
34 11 5
34 12 53
34 13 3
34 14 102
34 15 77
34 16 40
34 17 18
34 18 94
34 19 56
34 20 72
34 21 28
34 22 59
34 23 3
34 24 67
34 25 57
34 26 13
34 27 62
34 28 48
34 29 50
34 30 13
34 31 48
34 32 16
34 33 117
35 0 64
35 1 5
35 2 13
35 3 109
35 4 40
35 5 38
35 6 61
35 7 16
35 8 24
35 9 51
35 10 19
35 11 103
35 12 65
35 13 31
35 14 76
35 15 41
35 16 46
35 17 1
35 18 33
35 19 106
35 20 45
35 21 1
35 22 94
35 23 36
35 24 39
35 25 109
35 26 56
35 27 105
35 28 79
35 29 82
35 30 37
35 31 98
35 32 111
35 33 1
35 34 41
36 0 47
36 1 37
36 2 18
36 3 13
36 4 61
36 5 63
36 6 40
36 7 25
36 8 35
36 9 90
36 10 15
36 11 11
36 12 110
36 13 53
36 14 64
36 15 75
36 16 108
36 17 20
36 18 71
36 19 32
36 20 51
36 21 87
36 22 101
36 23 76
36 24 52
36 25 41
36 26 112
36 27 110
36 28 83
36 29 72
36 30 11
36 31 54
36 32 115
36 33 46
36 34 51
36 35 38
37 0 109
37 1 12
37 2 22
37 3 108
37 4 71
37 5 105
37 6 49
37 7 70
37 8 55
37 9 54
37 10 80
37 11 29
37 12 34
37 13 11
37 14 95
37 15 7
37 16 59
37 17 77
37 18 91
37 19 97
37 20 90
37 21 68
37 22 31
37 23 97
37 24 102
37 25 80
37 26 50
37 27 115
37 28 13
37 29 80
37 30 100
37 31 84
37 32 117
37 33 5
37 34 112
37 35 104
37 36 66
38 0 76
38 1 17
38 2 66
38 3 11
38 4 119
38 5 66
38 6 82
38 7 94
38 8 63
38 9 116
38 10 102
38 11 46
38 12 97
38 13 70
38 14 57
38 15 59
38 16 83
38 17 72
38 18 71
38 19 62
38 20 2
38 21 69
38 22 66
38 23 70
38 24 18
38 25 46
38 26 80
38 27 8
38 28 73
38 29 112
38 30 63
38 31 50
38 32 51
38 33 16
38 34 42
38 35 43
38 36 15
38 37 82
39 0 103
39 1 100
39 2 47
39 3 91
39 4 43
39 5 18
39 6 102
39 7 72
39 8 10
39 9 25
39 10 61
39 11 75
39 12 119
39 13 94
39 14 90
39 15 58
39 16 57
39 17 28
39 18 5
39 19 34
39 20 103
39 21 18
39 22 72
39 23 107
39 24 56
39 25 93
39 26 91
39 27 108
39 28 84
39 29 17
39 30 100
39 31 107
39 32 56
39 33 53
39 34 69
39 35 111
39 36 92
39 37 109
39 38 75
40 0 45
40 1 55
40 2 30
40 3 71
40 4 77
40 5 37
40 6 65
40 7 70
40 8 41
40 9 117
40 10 112
40 11 28
40 12 105
40 13 70
40 14 85
40 15 94
40 16 85
40 17 103
40 18 56
40 19 79
40 20 63
40 21 8
40 22 69
40 23 50
40 24 24
40 25 45
40 26 11
40 27 36
40 28 41
40 29 14
40 30 87
40 31 77
40 32 79
40 33 25
40 34 81
40 35 91
40 36 63
40 37 94
40 38 47
40 39 27
41 0 56
41 1 79
41 2 63
41 3 80
41 4 61
41 5 25
41 6 77
41 7 36
41 8 53
41 9 100
41 10 60
41 11 5
41 12 73
41 13 11
41 14 112
41 15 104
41 16 88
41 17 6
41 18 80
41 19 71
41 20 99
41 21 83
41 22 68
41 23 62
41 24 33
41 25 14
41 26 19
41 27 50
41 28 68
41 29 5
41 30 61
41 31 100
41 32 35
41 33 112
41 34 77
41 35 92
41 36 56
41 37 68
41 38 22
41 39 6
41 40 23
42 0 115
42 1 114
42 2 22
42 3 18
42 4 114
42 5 66
42 6 38
42 7 78
42 8 113
42 9 40
42 10 74
42 11 12
42 12 56
42 13 20
42 14 36
42 15 9
42 16 70
42 17 109
42 18 1
42 19 52
42 20 54
42 21 74
42 22 45
42 23 21
42 24 48
42 25 85
42 26 99
42 27 104
42 28 42
42 29 97
42 30 14
42 31 120
42 32 66
42 33 103
42 34 6
42 35 55
42 36 99
42 37 86
42 38 52
42 39 3
42 40 108
42 41 55
43 0 17
43 1 78
43 2 56
43 3 115
43 4 113
43 5 93
43 6 119
43 7 66
43 8 50
43 9 9
43 10 69
43 11 98
43 12 4
43 13 45
43 14 31
43 15 94
43 16 51
43 17 68
43 18 65
43 19 16
43 20 19
43 21 91
43 22 19
43 23 20
43 24 94
43 25 9
43 26 32
43 27 72
43 28 97
43 29 94
43 30 70
43 31 62
43 32 111
43 33 83
43 34 27
43 35 115
43 36 83
43 37 110
43 38 17
43 39 4
43 40 42
43 41 69
43 42 67
44 0 65
44 1 81
44 2 113
44 3 86
44 4 57
44 5 100
44 6 9
44 7 96
44 8 97
44 9 102
44 10 16
44 11 111
44 12 69
44 13 3
44 14 77
44 15 72
44 16 17
44 17 45
44 18 67
44 19 102
44 20 1
44 21 11
44 22 1
44 23 16
44 24 83
44 25 56
44 26 92
44 27 76
44 28 66
44 29 94
44 30 16
44 31 63
44 32 57
44 33 20
44 34 72
44 35 49
44 36 105
44 37 50
44 38 55
44 39 105
44 40 54
44 41 28
44 42 55
44 43 4
45 0 60
45 1 47
45 2 103
45 3 42
45 4 115
45 5 98
45 6 78
45 7 23
45 8 40
45 9 71
45 10 108
45 11 108
45 12 12
45 13 36
45 14 24
45 15 37
45 16 55
45 17 37
45 18 109
45 19 120
45 20 49
45 21 102
45 22 82
45 23 93
45 24 54
45 25 5
45 26 28
45 27 2
45 28 64
45 29 20
45 30 75
45 31 7
45 32 113
45 33 101
45 34 40
45 35 78
45 36 32
45 37 118
45 38 108
45 39 14
45 40 88
45 41 69
45 42 11
45 43 111
45 44 50
46 0 88
46 1 73
46 2 72
46 3 17
46 4 72
46 5 115
46 6 37
46 7 21
46 8 110
46 9 2
46 10 58
46 11 112
46 12 58
46 13 35
46 14 46
46 15 37
46 16 86
46 17 3
46 18 51
46 19 49
46 20 13
46 21 65
46 22 75
46 23 90
46 24 33
46 25 73
46 26 67
46 27 20
46 28 95
46 29 74
46 30 85
46 31 13
46 32 25
46 33 100
46 34 1
46 35 115
46 36 95
46 37 15
46 38 117
46 39 69
46 40 101
46 41 102
46 42 101
46 43 29
46 44 100
46 45 95
47 0 51
47 1 82
47 2 68
47 3 49
47 4 94
47 5 100
47 6 9
47 7 83
47 8 96
47 9 62
47 10 6
47 11 51
47 12 35
47 13 30
47 14 2
47 15 89
47 16 32
47 17 93
47 18 60
47 19 6
47 20 53
47 21 16
47 22 105
47 23 117
47 24 19
47 25 29
47 26 88
47 27 88
47 28 24
47 29 47
47 30 108
47 31 9
47 32 39
47 33 19
47 34 51
47 35 101
47 36 51
47 37 54
47 38 25
47 39 79
47 40 66
47 41 117
47 42 8
47 43 35
47 44 40
47 45 14
47 46 55
48 0 102
48 1 65
48 2 4
48 3 11
48 4 82
48 5 82
48 6 77
48 7 16
48 8 80
48 9 2
48 10 69
48 11 98
48 12 54
48 13 41
48 14 48
48 15 76
48 16 68
48 17 45
48 18 84
48 19 51
48 20 71
48 21 83
48 22 87
48 23 112
48 24 104
48 25 53
48 26 89
48 27 99
48 28 38
48 29 42
48 30 45
48 31 17
48 32 47
48 33 94
48 34 54
48 35 74
48 36 35
48 37 88
48 38 19
48 39 62
48 40 105
48 41 17
48 42 76
48 43 91
48 44 110
48 45 109
48 46 21
48 47 60
49 0 82
49 1 48
49 2 84
49 3 63
49 4 1
49 5 45
49 6 30
49 7 11
49 8 27
49 9 82
49 10 67
49 11 6
49 12 80
49 13 8
49 14 118
49 15 39
49 16 87
49 17 119
49 18 52
49 19 27
49 20 62
49 21 32
49 22 111
49 23 10
49 24 85
49 25 115
49 26 7
49 27 19
49 28 7
49 29 97
49 30 52
49 31 108
49 32 89
49 33 19
49 34 98
49 35 111
49 36 57
49 37 16
49 38 79
49 39 36
49 40 1
49 41 61
49 42 21
49 43 4
49 44 65
49 45 79
49 46 19
49 47 112
49 48 11
50 0 34
50 1 16
50 2 3
50 3 114
50 4 3
50 5 83
50 6 43
50 7 69
50 8 15
50 9 116
50 10 105
50 11 91
50 12 72
50 13 76
50 14 74
50 15 102
50 16 89
50 17 111
50 18 60
50 19 33
50 20 105
50 21 63
50 22 43
50 23 91
50 24 75
50 25 36
50 26 9
50 27 118
50 28 22
50 29 34
50 30 110
50 31 57
50 32 40
50 33 46
50 34 57
50 35 7
50 36 25
50 37 71
50 38 95
50 39 19
50 40 115
50 41 103
50 42 58
50 43 92
50 44 110
50 45 99
50 46 17
50 47 103
50 48 1
50 49 2
51 0 17
51 1 63
51 2 24
51 3 32
51 4 84
51 5 28
51 6 65
51 7 54
51 8 105
51 9 106
51 10 114
51 11 100
51 12 83
51 13 63
51 14 93
51 15 66
51 16 94
51 17 8
51 18 109
51 19 6
51 20 15
51 21 29
51 22 97
51 23 61
51 24 80
51 25 65
51 26 106
51 27 72
51 28 17
51 29 23
51 30 113
51 31 11
51 32 26
51 33 8
51 34 94
51 35 7
51 36 90
51 37 32
51 38 6
51 39 108
51 40 113
51 41 96
51 42 116
51 43 29
51 44 63
51 45 55
51 46 67
51 47 59
51 48 39
51 49 111
51 50 56
52 0 87
52 1 99
52 2 81
52 3 59
52 4 109
52 5 75
52 6 29
52 7 57
52 8 119
52 9 104
52 10 99
52 11 13
52 12 8
52 13 115
52 14 46
52 15 92
52 16 90
52 17 42
52 18 82
52 19 73
52 20 69
52 21 2
52 22 112
52 23 40
52 24 101
52 25 117
52 26 116
52 27 53
52 28 52
52 29 4
52 30 14
52 31 113
52 32 44
52 33 56
52 34 31
52 35 83
52 36 19
52 37 57
52 38 69
52 39 119
52 40 43
52 41 61
52 42 20
52 43 3
52 44 85
52 45 105
52 46 60
52 47 24
52 48 89
52 49 20
52 50 27
52 51 86
53 0 115
53 1 53
53 2 117
53 3 74
53 4 93
53 5 30
53 6 15
53 7 39
53 8 107
53 9 100
53 10 81
53 11 58
53 12 91
53 13 19
53 14 78
53 15 43
53 16 40
53 17 78
53 18 85
53 19 50
53 20 39
53 21 79
53 22 112
53 23 70
53 24 61
53 25 17
53 26 106
53 27 52
53 28 110
53 29 12
53 30 54
53 31 44
53 32 118
53 33 73
53 34 8
53 35 37
53 36 103
53 37 78
53 38 37
53 39 83
53 40 66
53 41 2
53 42 120
53 43 87
53 44 73
53 45 113
53 46 33
53 47 14
53 48 55
53 49 40
53 50 26
53 51 98
53 52 78
54 0 81
54 1 12
54 2 54
54 3 71
54 4 3
54 5 43
54 6 61
54 7 64
54 8 81
54 9 75
54 10 51
54 11 116
54 12 40
54 13 79
54 14 22
54 15 63
54 16 116
54 17 8
54 18 119
54 19 25
54 20 81
54 21 97
54 22 26
54 23 55
54 24 23
54 25 26
54 26 80
54 27 44
54 28 100
54 29 111
54 30 95
54 31 21
54 32 14
54 33 97
54 34 59
54 35 76
54 36 34
54 37 2
54 38 69
54 39 17
54 40 57
54 41 76
54 42 6
54 43 58
54 44 33
54 45 56
54 46 90
54 47 88
54 48 103
54 49 8
54 50 11
54 51 80
54 52 10
54 53 4
55 0 100
55 1 71
55 2 3
55 3 19
55 4 26
55 5 74
55 6 2
55 7 106
55 8 101
55 9 81
55 10 16
55 11 25
55 12 17
55 13 95
55 14 68
55 15 13
55 16 37
55 17 58
55 18 61
55 19 110
55 20 8
55 21 38
55 22 41
55 23 39
55 24 74
55 25 101
55 26 39
55 27 116
55 28 74
55 29 74
55 30 14
55 31 88
55 32 17
55 33 111
55 34 85
55 35 30
55 36 101
55 37 49
55 38 82
55 39 26
55 40 96
55 41 100
55 42 105
55 43 54
55 44 101
55 45 64
55 46 100
55 47 116
55 48 37
55 49 47
55 50 79
55 51 40
55 52 52
55 53 36
55 54 12
56 0 16
56 1 110
56 2 66
56 3 4
56 4 44
56 5 50
56 6 70
56 7 80
56 8 118
56 9 104
56 10 113
56 11 10
56 12 5
56 13 114
56 14 56
56 15 2
56 16 6
56 17 25
56 18 10
56 19 110
56 20 64
56 21 53
56 22 77
56 23 90
56 24 107
56 25 59
56 26 85
56 27 7
56 28 10
56 29 70
56 30 34
56 31 22
56 32 89
56 33 87
56 34 93
56 35 94
56 36 78
56 37 113
56 38 97
56 39 3
56 40 95
56 41 27
56 42 70
56 43 112
56 44 44
56 45 76
56 46 119
56 47 112
56 48 53
56 49 91
56 50 68
56 51 75
56 52 28
56 53 70
56 54 6
56 55 12
57 0 9
57 1 61
57 2 24
57 3 60
57 4 74
57 5 105
57 6 2
57 7 80
57 8 102
57 9 53
57 10 70
57 11 107
57 12 113
57 13 77
57 14 16
57 15 38
57 16 1
57 17 50
57 18 18
57 19 50
57 20 32
57 21 13
57 22 61
57 23 66
57 24 29
57 25 81
57 26 120
57 27 72
57 28 1
57 29 18
57 30 92
57 31 21
57 32 62
57 33 21
57 34 52
57 35 104
57 36 66
57 37 118
57 38 7
57 39 63
57 40 115
57 41 26
57 42 10
57 43 70
57 44 2
57 45 48
57 46 116
57 47 105
57 48 29
57 49 113
57 50 24
57 51 57
57 52 108
57 53 12
57 54 97
57 55 64
57 56 4
58 0 15
58 1 72
58 2 8
58 3 107
58 4 74
58 5 95
58 6 25
58 7 106
58 8 98
58 9 85
58 10 60
58 11 66
58 12 36
58 13 79
58 14 120
58 15 25
58 16 42
58 17 40
58 18 51
58 19 19
58 20 110
58 21 18
58 22 80
58 23 88
58 24 11
58 25 60
58 26 27
58 27 52
58 28 33
58 29 102
58 30 67
58 31 3
58 32 76
58 33 118
58 34 34
58 35 51
58 36 60
58 37 3
58 38 93
58 39 58
58 40 90
58 41 113
58 42 78
58 43 32
58 44 43
58 45 85
58 46 3
58 47 41
58 48 81
58 49 29
58 50 88
58 51 14
58 52 15
58 53 101
58 54 85
58 55 35
58 56 33
58 57 105
59 0 45
59 1 114
59 2 74
59 3 82
59 4 80
59 5 116
59 6 57
59 7 12
59 8 113
59 9 63
59 10 91
59 11 18
59 12 20
59 13 12
59 14 74
59 15 74
59 16 99
59 17 24
59 18 24
59 19 74
59 20 75
59 21 72
59 22 2
59 23 58
59 24 112
59 25 118
59 26 71
59 27 59
59 28 55
59 29 22
59 30 59
59 31 18
59 32 75
59 33 45
59 34 104
59 35 35
59 36 85
59 37 4
59 38 13
59 39 10
59 40 73
59 41 51
59 42 22
59 43 68
59 44 102
59 45 115
59 46 102
59 47 74
59 48 33
59 49 78
59 50 102
59 51 25
59 52 38
59 53 69
59 54 66
59 55 50
59 56 5
59 57 12
59 58 112
